Rodando pra 1h

Optimize a model with 360129 rows, 539210 columns and 19742489 nonzeros
Coefficient statistics:
  Matrix range    [1e+00, 1e+04]
  Objective range [5e-01, 5e-01]
  Bounds range    [1e+00, 1e+04]
  RHS range       [1e+00, 1e+04]
Presolve removed 1 rows and 1 columns (presolve time = 6s) ...
Presolve removed 2 rows and 2 columns (presolve time = 10s) ...
Presolve removed 4 rows and 4 columns (presolve time = 28s) ...
Presolve removed 8 rows and 8 columns (presolve time = 37s) ...
Presolve removed 8 rows and 8 columns (presolve time = 51s) ...
Presolve removed 8 rows and 8 columns (presolve time = 55s) ...
Presolve removed 8 rows and 8 columns (presolve time = 62s) ...
Presolve removed 8 rows and 8 columns (presolve time = 70s) ...
Presolve removed 8 rows and 8 columns (presolve time = 76s) ...
Presolve removed 8 rows and 8 columns (presolve time = 82s) ...
Presolve removed 8 rows and 8 columns (presolve time = 88s) ...
Presolve removed 8 rows and 8 columns (presolve time = 93s) ...
Presolve removed 8 rows and 8 columns (presolve time = 99s) ...
Presolve removed 8 rows and 8 columns (presolve time = 104s) ...
Presolve removed 8 rows and 8 columns (presolve time = 109s) ...
Presolve removed 8 rows and 8 columns (presolve time = 114s) ...
Presolve removed 8 rows and 8 columns (presolve time = 119s) ...
Presolve removed 8 rows and 8 columns (presolve time = 123s) ...
Presolve removed 8 rows and 8 columns (presolve time = 127s) ...
Presolve removed 8 rows and 8 columns (presolve time = 132s) ...
Presolve removed 8 rows and 8 columns (presolve time = 136s) ...
Presolve removed 8 rows and 8 columns (presolve time = 140s) ...
Presolve removed 8 rows and 8 columns (presolve time = 149s) ...
Presolve removed 8 rows and 8 columns (presolve time = 153s) ...
Presolve removed 8 rows and 8 columns (presolve time = 157s) ...
Presolve removed 8 rows and 8 columns (presolve time = 161s) ...
Presolve removed 8 rows and 8 columns (presolve time = 166s) ...
Presolve removed 8 rows and 8 columns (presolve time = 170s) ...
Presolve removed 8 rows and 8 columns (presolve time = 179s) ...
Presolve removed 8 rows and 8 columns (presolve time = 183s) ...
Presolve removed 8 rows and 8 columns (presolve time = 187s) ...
Presolve removed 8 rows and 8 columns (presolve time = 191s) ...
Presolve removed 8 rows and 8 columns (presolve time = 195s) ...
Presolve removed 8 rows and 8 columns (presolve time = 204s) ...
Presolve removed 8 rows and 8 columns (presolve time = 208s) ...
Presolve removed 8 rows and 8 columns (presolve time = 212s) ...
Presolve removed 8 rows and 8 columns (presolve time = 216s) ...
Presolve removed 8 rows and 8 columns (presolve time = 221s) ...
Presolve removed 8 rows and 8 columns (presolve time = 229s) ...
Presolve removed 8 rows and 8 columns (presolve time = 233s) ...
Presolve removed 8 rows and 8 columns (presolve time = 237s) ...
Presolve removed 8 rows and 8 columns (presolve time = 240s) ...
Presolve removed 8 rows and 8 columns (presolve time = 248s) ...
Presolve removed 8 rows and 8 columns (presolve time = 262s) ...
Presolve removed 8 rows and 8 columns (presolve time = 268s) ...
Presolve removed 8 rows and 8 columns (presolve time = 293s) ...
Presolve removed 8 rows and 8 columns
Presolve time: 293.29s
Presolved: 360121 rows, 539202 columns, 19742433 nonzeros
Variable types: 359400 continuous, 179802 integer (179800 binary)
Optimize a model with 360121 rows, 539202 columns and 19742433 nonzeros
Coefficient statistics:
  Matrix range    [1e+00, 1e+04]
  Objective range [5e-01, 5e-01]
  Bounds range    [1e+00, 1e+04]
  RHS range       [1e+00, 2e+04]
Presolve removed 0 rows and 0 columns (presolve time = 6s) ...
Presolve removed 0 rows and 0 columns (presolve time = 11s) ...
Presolve removed 0 rows and 0 columns (presolve time = 15s) ...
Presolved: 360121 rows, 539202 columns, 19742433 nonzeros


Root simplex log...

Iteration    Objective       Primal Inf.    Dual Inf.      Time
       0    0.0000000e+00   1.814585e+03   0.000000e+00    351s
    1300    0.0000000e+00   0.000000e+00   0.000000e+00    353s

Root relaxation: objective 0.000000e+00, 1300 iterations, 19.01 seconds

    Nodes    |    Current Node    |     Objective Bounds      |     Work
 Expl Unexpl |  Obj  Depth IntInf | Incumbent    BestBd   Gap | It/Node Time

     0     0    0.00000    0  620          -    0.00000      -     - 3601s

Explored 0 nodes (145933 simplex iterations) in 3601.23 seconds
Thread count was 1 (of 4 available processors)

Time limit reached
Best objective -, best bound 0.000000000000e+00, gap -
Tempo: 3558.72 segundos

Error code = 10004
Var::get
